NAME:test
TYPE:TSP
DIMENSION:10 //ここに頂点数が入る
EDGE_WEIGHT_TYPE:EXPLICIT

EDGE_WEIGHT_FORMAT:FULL_MATRIX
EDGE_DATA_FORMAT:EDGE_LIST
NODE_COORD_TYPE:NO_COORDS
DISPLAY_DATA_TYPE:COORD_DISPLAY
EDGE_WEIGHT_SECTION:
0 8 4 1 4 3 1 3 5 6
8 0 4 7 6 7 9 5 8 4
4 4 0 3 2 4 5 1 4 3
1 7 3 0 4 3 2 2 4 5
4 6 2 4 0 6 5 2 2 2
3 7 4 3 6 0 4 4 7 7
1 9 5 2 5 4 0 4 5 7
3 5 1 2 2 4 4 0 4 4
5 8 4 4 2 7 5 4 0 4
6 4 3 5 2 7 7 4 4 0